peakDumbCharging = 25900; 
Machine = anon_enum(16); 
machineSpeed = [3700,3700,3700,3700,3700,3700,3700,3700,3700,3700,3700,3700,3700,3700,3700,3700]; 
machineLoad = [3700,3700,3700,3700,3700,3700,3700,3700,3700,3700,3700,3700,3700,3700,3700,3700]; 
Car = anon_enum(23); 
demandCar = [12640,3120,5040,8720,4600,4280,5640,7360,8040,7840,24640,7560,5520,8080,5720,17320,22520,6840,14400,22120,6640,15320,54160]; 
arrivalCar = [79,72,69,69,68,68,67,67,66,63,61,61,61,60,57,54,51,47,43,40,35,34,24]; 
departureCar = [83,75,73,76,71,71,71,72,69,67,73,65,65,65,62,61,63,61,49,48,38,39,41]; 
